&user_inputs
x_domain%beg = -1
x_domain%end = 1
y_domain%beg = -1
y_domain%end = 1
m = 199
n = 199
p = 0
cyl_coord = F
t_step_start = 0
model_eqns = 2
mpp_lim = F
weno_order = 5
bc_x%beg = -1
bc_x%end = -1
bc_y%beg = -1
bc_y%end = -1
num_patches = 2
num_fluids = 1
igr = T
elliptic_smoothing = T
elliptic_smoothing_iters = 15
precision = 1
parallel_io = F
fluid_pp(1)%gamma = 2.5000000000000004
fluid_pp(1)%pi_inf = 0.0
viscous = T
patch_icpp(1)%geometry = 3
patch_icpp(1)%x_centroid = 0
patch_icpp(1)%y_centroid = 0
patch_icpp(1)%length_x = 2
patch_icpp(1)%length_y = 2
patch_icpp(1)%vel(1) = 0.0
patch_icpp(1)%vel(2) = 0.0
patch_icpp(1)%vel(3) = 0.0
patch_icpp(1)%pres = 1
patch_icpp(1)%alpha_rho(1) = 1
patch_icpp(1)%alpha(1) = 1
patch_icpp(2)%alter_patch(1) = T
patch_icpp(2)%geometry = 2
patch_icpp(2)%x_centroid = 0
patch_icpp(2)%y_centroid = 0
patch_icpp(2)%radius = 0.25
patch_icpp(2)%vel(1) = 0.0
patch_icpp(2)%vel(2) = 0.0
patch_icpp(2)%pres = 9.518
patch_icpp(2)%alpha_rho(1) = 5
patch_icpp(2)%alpha(1) = 1
&end/
