&user_inputs
run_time_info = T
x_domain%beg = -1
x_domain%end = 1
y_domain%beg = -1
y_domain%end = 1
m = 199
n = 199
p = 0
cyl_coord = F
dt = 0.0005
t_step_start = 0
t_step_stop = 500
t_step_save = 10
model_eqns = 2
alt_soundspeed = F
mixture_err = T
mpp_lim = F
time_stepper = 3
weno_order = 5
avg_state = 2
weno_eps = 1e-16
mapped_weno = T
null_weights = F
mp_weno = T
weno_Re_flux = T
riemann_solver = 2
wave_speeds = 1
bc_x%beg = -1
bc_x%end = -1
bc_y%beg = -1
bc_y%end = -1
num_fluids = 1
igr = T
alf_factor = 10
precision = 1
prim_vars_wrt = T
parallel_io = F
fluid_pp(1)%gamma = 2.5000000000000004
fluid_pp(1)%pi_inf = 0.0
viscous = T
fluid_pp(1)%Re(1) = 100000.0
&end/
